benchmarks/bfuzz0/324481044923831801227279249063186013209.smt2
(set-logic QF_FP)
(declare-const x0 (_ FloatingPoint 11 53))
(declare-const x1 (_ FloatingPoint 11 53))
(declare-const x2 (_ FloatingPoint 11 53))
(declare-const x3 (_ FloatingPoint 11 53))
(declare-const x4 (_ FloatingPoint 11 53))
(declare-const x5 (_ FloatingPoint 11 53))
(declare-const x6 (_ FloatingPoint 11 53))
(declare-const x7 (_ FloatingPoint 11 53))
(declare-const x8 (_ FloatingPoint 11 53))
(declare-const x9 (_ FloatingPoint 11 53))
(declare-const x10 (_ FloatingPoint 11 53))
(declare-const x11 (_ FloatingPoint 11 53))
(declare-const x12 (_ FloatingPoint 11 53))
(declare-const x13 (_ FloatingPoint 11 53))
(declare-const x14 (_ FloatingPoint 11 53))
(declare-const x15 (_ FloatingPoint 11 53))
(declare-const x16 (_ FloatingPoint 11 53))
(declare-const x17 (_ FloatingPoint 11 53))
(declare-const x18 (_ FloatingPoint 11 53))
(declare-const x19 (_ FloatingPoint 11 53))
(declare-const x20 (_ FloatingPoint 11 53))
(declare-const x21 (_ FloatingPoint 11 53))
(declare-const x22 (_ FloatingPoint 11 53))
(declare-const x23 (_ FloatingPoint 11 53))
(declare-const x24 (_ FloatingPoint 11 53))
(assert (fp.lt (fp.sub RNE x21 x3) (fp.neg x1)))
(assert (fp.leq (fp.div RNE x3 x18) (fp.div RNE x24 x2)))
(assert (fp.eq (fp.add RNE x1 x12) (fp.div RNE x22 x8)))
(assert (fp.gt (fp.sub RNE x2 x6) (fp.sub RNE x4 x16)))
(assert (fp.lt (fp.mul RNE x13 x15) (fp.add RNE x1 x0)))
(assert (fp.lt (fp.mul RNE x21 x10) (fp.neg x24)))
(assert (fp.eq (fp.sub RNE x13 x18) (fp.sub RNE x20 x2)))
(assert (fp.eq (fp.sub RNE x24 x11) (fp.sub RNE x0 x16)))
(assert (fp.lt (fp.mul RNE x13 x15) (fp.sub RNE x5 x7)))
(assert (fp.eq (fp.sub RNE x20 x0) (fp.add RNE x5 x13)))
(assert (fp.leq (fp.mul RNE x1 x18) (fp.neg x2)))
(assert (fp.geq (fp.neg x4) (fp.sub RNE x18 x12)))
(assert (fp.geq (fp.add RNE x16 x5) (fp.sub RNE x5 x2)))
(check-sat)
