db/data/324481044923831801227279249063186013209.z3.out
-------------------
2500.096518285
